datasets/2-dimensional/CL_02_25_02.vbp
2
1000 1000 
25
84 716 30
851 57 72
736 126 4
294 145 88
414 671 54
319 592 64
563 132 90
36 843 26
959 618 94
889 676 28
715 575 72
658 202 49
275 780 54
453 864 19
416 344 28
718 442 61
250 712 84
232 45 23
221 661 67
105 118 53
106 304 54
780 440 16
18 83 9
39 121 54
399 776 77
