datasets/2-dimensional-benchmark/CL_02_25_02.txt
1000 1000 
0 30 84 716 
1 72 851 57 
2 4 736 126 
3 88 294 145 
4 54 414 671 
5 64 319 592 
6 90 563 132 
7 26 36 843 
8 94 959 618 
9 28 889 676 
10 72 715 575 
11 49 658 202 
12 54 275 780 
13 19 453 864 
14 28 416 344 
15 61 718 442 
16 84 250 712 
17 23 232 45 
18 67 221 661 
19 53 105 118 
20 54 106 304 
21 16 780 440 
22 9 18 83 
23 54 39 121 
24 77 399 776 
